1440 1335 10 0 1439
1209 349 2 373 473
1857 1345 2 1288 1303
840 1318 1 1285 1368
1268 1718 1 1376 1430
718 35 3 472 474
1016 1851 3 1099 1110
2041 470 1 65 180
1905 98 1 419 437
1048 1189 4 399 511
476 629 1 895 895
